
Gurobi 13.0.2 (win64) logging started Thu Jul 23 13:53:52 2026

Set parameter LogFile to value "E:\codes\ExactEBRP\results\gf_gurobi_performance_recovery_round29\runs\stage1__V12_M1__c3_replica__300s\external\native_logs\R.1.0.0.1.0.0.0.1.0_lp.gurobi.log"
Gurobi Optimizer version 13.0.2 build v13.0.2rc1 (win64 - Windows 10.0 (19045.2))

CPU model: 12th Gen Intel(R) Core(TM) i7-12700KF, instruction set [SSE2|AVX|AVX2]
Thread count: 12 physical cores, 20 logical processors, using up to 1 threads

Non-default parameters:
TimeLimit  157.928925
MIPGap  0
MIPGapAbs  0
LogToConsole  0
Threads  1

Optimize a model with 6225 rows, 648 columns and 59365 nonzeros (Min)
Model fingerprint: 0x6db6b538
Model has 13 linear objective coefficients
Coefficient statistics:
  Matrix range     [2e-03, 1e+05]
  Objective range  [2e-03, 1e+00]
  Bounds range     [1e-01, 8e+01]
  RHS range        [3e-02, 1e+06]

Presolve removed 253 rows and 38 columns
Presolve time: 0.02s
Presolved: 5972 rows, 611 columns, 58548 nonzeros

Iteration    Objective       Primal Inf.    Dual Inf.      Time
       0    2.0675904e-01   1.388058e+02   0.000000e+00      0s
     708    3.0944552e-01   0.000000e+00   0.000000e+00      0s

Solved in 708 iterations and 0.06 seconds (0.20 work units)
Optimal objective  3.094455229e-01

User-callback calls 850, time in user-callback 0.00 sec
